c nombre: 3
c densidad: 0.1
p edges 50 143
e 1 14
e 1 15
e 1 32
e 1 38
e 1 39
e 1 40
e 1 43
e 1 50
e 2 7
e 2 21
e 2 30
e 2 41
e 3 10
e 3 11
e 3 21
e 3 41
e 3 44
e 3 49
e 4 24
e 4 33
e 4 39
e 5 6
e 5 16
e 5 34
e 5 46
e 6 11
e 6 16
e 6 21
e 6 29
e 6 31
e 6 38
e 6 46
e 6 49
e 7 16
e 7 22
e 7 24
e 7 41
e 7 46
e 7 50
e 8 14
e 8 49
e 9 10
e 9 12
e 9 19
e 9 22
e 9 25
e 9 35
e 9 37
e 9 40
e 9 43
e 10 21
e 10 47
e 11 17
e 11 18
e 11 23
e 11 43
e 12 26
e 12 27
e 12 36
e 12 43
e 12 47
e 12 50
e 13 42
e 13 43
e 13 45
e 14 20
e 14 29
e 14 33
e 14 44
e 14 46
e 15 26
e 15 30
e 15 37
e 15 40
e 16 22
e 16 24
e 16 27
e 16 31
e 16 34
e 16 48
e 17 35
e 17 45
e 18 20
e 18 42
e 18 48
e 19 20
e 19 40
e 19 47
e 20 33
e 20 37
e 20 44
e 20 45
e 20 46
e 20 48
e 20 50
e 21 32
e 21 35
e 21 36
e 21 38
e 21 39
e 22 23
e 22 41
e 22 44
e 22 50
e 23 28
e 23 39
e 23 45
e 23 46
e 23 47
e 23 48
e 24 37
e 24 49
e 25 27
e 25 30
e 25 31
e 26 30
e 27 44
e 28 33
e 28 36
e 28 50
e 29 30
e 30 41
e 30 49
e 31 34
e 32 50
e 33 34
e 33 48
e 33 50
e 34 37
e 34 47
e 35 37
e 35 38
e 35 40
e 35 43
e 36 38
e 38 47
e 38 49
e 38 50
e 39 44
e 39 46
e 41 49
e 44 47
e 47 50
